SAT
-1 -100 -99 -98 -97 -96 -95 93 -54 52 48 -79 -88 -17 -91 76 69 5 50 -12 -47 -56 59 64 19 27 -63 -82 80 -86 -37 72 -25 -41 -13 3 -14 81 75 -92 -18 -58 -60 23 24 49 -9 -8 33 11 31 -28 -68 2 -78 -29 -30 67 -44 -26 -83 -45 -21 -34 4 -94 38 -43 87 -73 -90 32 -55 46 36 -66 89 42 62 35 -7 74 -10 65 -61 57 -20 -40 53 -77 -51 85 -70 71 -16 -6 22 15 84 39 0
